33D32945 STP File, STP Format Version 1.0

SECTION Comment
Name "i640-001-PCST"
Creator "Indaco Biazzo" 
Remark "derived from Incidence graph by Cees Duin"
END

SECTION Graph
Nodes 640
Edges 960
E 1 21 210.000000
E 1 165 199.000000
E 1 202 200.000000
E 1 315 199.000000
E 1 329 208.000000
E 1 340 192.000000
E 1 378 209.000000
E 1 420 202.000000
E 1 527 204.000000
E 2 91 198.000000
E 2 574 192.000000
E 3 132 205.000000
E 3 238 203.000000
E 4 396 201.000000
E 5 113 205.000000
E 5 588 204.000000
E 6 7 296.000000
E 6 90 195.000000
E 6 92 199.000000
E 6 103 206.000000
E 6 179 197.000000
E 6 341 204.000000
E 7 150 196.000000
E 7 455 200.000000
E 8 474 196.000000
E 8 548 208.000000
E 9 198 201.000000
E 9 280 197.000000
E 9 377 199.000000
E 9 438 202.000000
E 9 566 198.000000
E 10 309 104.000000
E 10 428 93.000000
E 10 531 97.000000
E 11 59 96.000000
E 11 99 98.000000
E 11 172 96.000000
E 12 104 113.000000
E 12 296 106.000000
E 12 458 96.000000
E 12 478 101.000000
E 12 584 100.000000
E 12 586 92.000000
E 13 120 97.000000
E 13 158 102.000000
E 13 397 102.000000
E 13 403 103.000000
E 14 17 94.000000
E 14 563 95.000000
E 15 36 104.000000
E 15 80 94.000000
E 15 348 103.000000
E 15 565 103.000000
E 16 78 106.000000
E 16 549 98.000000
E 17 168 106.000000
E 17 220 106.000000
E 18 235 101.000000
E 18 326 106.000000
E 19 560 105.000000
E 20 307 93.000000
E 20 476 94.000000
E 21 73 92.000000
E 21 248 88.000000
E 22 124 95.000000
E 22 160 97.000000
E 22 214 103.000000
E 22 382 100.000000
E 22 472 104.000000
E 22 529 98.000000
E 23 287 100.000000
E 23 518 99.000000
E 23 638 101.000000
E 24 149 96.000000
E 24 209 100.000000
E 24 402 99.000000
E 24 415 99.000000
E 25 108 101.000000
E 25 182 102.000000
E 25 581 98.000000
E 26 181 101.000000
E 26 426 102.000000
E 26 562 110.000000
E 27 136 101.000000
E 27 378 97.000000
E 28 91 94.000000
E 28 176 105.000000
E 28 262 102.000000
E 28 378 92.000000
E 29 44 102.000000
E 29 229 102.000000
E 29 455 101.000000
E 30 154 108.000000
E 30 189 96.000000
E 30 292 98.000000
E 30 378 105.000000
E 30 600 99.000000
E 31 213 101.000000
E 31 305 101.000000
E 32 45 100.000000
E 32 70 102.000000
E 32 153 103.000000
E 33 118 98.000000
E 33 223 93.000000
E 33 369 100.000000
E 33 393 107.000000
E 33 528 102.000000
E 34 275 92.000000
E 34 589 95.000000
E 35 285 102.000000
E 35 454 96.000000
E 35 515 97.000000
E 35 537 99.000000
E 35 568 95.000000
E 36 78 87.000000
E 36 227 111.000000
E 37 128 102.000000
E 37 519 100.000000
E 38 74 104.000000
E 38 127 100.000000
E 38 488 94.000000
E 38 571 94.000000
E 39 45 106.000000
E 39 238 95.000000
E 39 353 93.000000
E 39 503 99.000000
E 40 127 97.000000
E 40 373 105.000000
E 41 526 103.000000
E 42 332 99.000000
E 42 469 109.000000
E 43 617 97.000000
E 44 234 102.000000
E 44 385 96.000000
E 44 457 93.000000
E 44 595 80.000000
E 45 107 102.000000
E 45 466 98.000000
E 45 554 105.000000
E 46 270 95.000000
E 46 323 96.000000
E 46 384 98.000000
E 46 388 96.000000
E 46 473 99.000000
E 47 127 93.000000
E 47 324 95.000000
E 47 354 94.000000
E 47 556 100.000000
E 48 70 92.000000
E 48 341 97.000000
E 49 258 104.000000
E 49 332 100.000000
E 50 83 105.000000
E 50 355 95.000000
E 51 100 106.000000
E 51 441 100.000000
E 52 161 98.000000
E 52 395 96.000000
E 52 501 103.000000
E 52 627 98.000000
E 53 82 95.000000
E 53 241 105.000000
E 53 551 102.000000
E 54 55 94.000000
E 54 134 105.000000
E 54 232 96.000000
E 54 549 100.000000
E 54 601 101.000000
E 55 592 105.000000
E 56 224 98.000000
E 57 159 94.000000
E 57 227 96.000000
E 57 337 104.000000
E 57 432 92.000000
E 57 619 106.000000
E 58 216 99.000000
E 58 224 97.000000
E 58 265 94.000000
E 58 302 97.000000
E 58 344 101.000000
E 58 392 100.000000
E 58 427 103.000000
E 58 542 100.000000
E 58 630 96.000000
E 59 185 105.000000
E 59 252 100.000000
E 59 272 102.000000
E 59 494 103.000000
E 59 614 96.000000
E 60 314 98.000000
E 60 472 99.000000
E 60 541 99.000000
E 61 270 96.000000
E 61 299 100.000000
E 61 431 107.000000
E 61 551 103.000000
E 62 450 88.000000
E 62 483 105.000000
E 62 516 101.000000
E 63 269 93.000000
E 63 279 101.000000
E 64 358 96.000000
E 64 547 106.000000
E 64 612 111.000000
E 65 173 96.000000
E 65 309 99.000000
E 65 513 95.000000
E 65 556 96.000000
E 66 257 104.000000
E 66 400 99.000000
E 67 126 98.000000
E 67 295 103.000000
E 68 386 100.000000
E 68 398 94.000000
E 69 388 102.000000
E 69 422 101.000000
E 70 563 101.000000
E 71 219 106.000000
E 71 499 101.000000
E 71 576 95.000000
E 72 136 100.000000
E 72 455 99.000000
E 73 157 93.000000
E 74 190 103.000000
E 74 310 99.000000
E 74 329 106.000000
E 74 550 99.000000
E 75 91 94.000000
E 75 495 100.000000
E 76 202 108.000000
E 76 206 102.000000
E 76 483 96.000000
E 76 563 102.000000
E 77 197 101.000000
E 77 345 109.000000
E 77 557 97.000000
E 77 581 95.000000
E 78 377 103.000000
E 78 589 104.000000
E 78 632 104.000000
E 79 197 96.000000
E 79 296 103.000000
E 79 390 93.000000
E 80 183 94.000000
E 80 464 100.000000
E 80 570 108.000000
E 81 150 98.000000
E 81 374 99.000000
E 81 543 113.000000
E 81 592 97.000000
E 82 209 99.000000
E 82 304 97.000000
E 82 346 100.000000
E 82 409 96.000000
E 82 473 105.000000
E 82 544 103.000000
E 83 149 104.000000
E 83 206 114.000000
E 83 458 89.000000
E 83 501 108.000000
E 83 536 94.000000
E 83 630 92.000000
E 84 434 101.000000
E 84 564 105.000000
E 84 597 96.000000
E 85 90 99.000000
E 85 241 110.000000
E 85 297 104.000000
E 85 363 102.000000
E 85 412 96.000000
E 86 232 94.000000
E 86 608 101.000000
E 87 215 100.000000
E 87 238 103.000000
E 88 98 96.000000
E 88 336 93.000000
E 89 595 102.000000
E 90 277 98.000000
E 90 511 109.000000
E 90 618 104.000000
E 91 388 97.000000
E 91 462 111.000000
E 91 566 102.000000
E 92 127 107.000000
E 92 332 96.000000
E 93 289 113.000000
E 94 216 93.000000
E 94 438 96.000000
E 95 356 95.000000
E 95 395 98.000000
E 96 432 103.000000
E 97 113 101.000000
E 97 185 101.000000
E 98 229 105.000000
E 99 253 110.000000
E 99 392 92.000000
E 100 116 95.000000
E 100 492 95.000000
E 101 241 98.000000
E 101 428 91.000000
E 102 182 94.000000
E 102 351 103.000000
E 102 502 95.000000
E 102 512 101.000000
E 102 516 104.000000
E 102 596 101.000000
E 103 381 97.000000
E 103 462 94.000000
E 103 517 95.000000
E 104 219 91.000000
E 104 329 93.000000
E 104 419 100.000000
E 104 530 106.000000
E 105 552 103.000000
E 106 156 101.000000
E 106 195 105.000000
E 106 407 101.000000
E 107 138 103.000000
E 107 184 95.000000
E 108 365 96.000000
E 109 193 97.000000
E 109 203 103.000000
E 109 423 92.000000
E 110 593 106.000000
E 111 222 102.000000
E 111 615 108.000000
E 112 124 100.000000
E 112 264 105.000000
E 113 223 100.000000
E 114 195 102.000000
E 114 523 91.000000
E 115 180 98.000000
E 115 202 98.000000
E 115 443 100.000000
E 115 517 102.000000
E 115 521 106.000000
E 115 523 101.000000
E 115 566 105.000000
E 116 256 93.000000
E 116 424 98.000000
E 117 140 94.000000
E 117 257 112.000000
E 117 354 94.000000
E 117 375 96.000000
E 117 564 96.000000
E 118 210 100.000000
E 119 210 95.000000
E 119 301 95.000000
E 119 369 95.000000
E 120 240 97.000000
E 120 385 95.000000
E 121 178 91.000000
E 121 309 97.000000
E 121 455 107.000000
E 122 160 104.000000
E 123 311 104.000000
E 123 339 102.000000
E 123 446 99.000000
E 124 348 98.000000
E 124 581 111.000000
E 124 610 110.000000
E 124 634 86.000000
E 125 317 103.000000
E 125 339 101.000000
E 125 539 102.000000
E 125 633 96.000000
E 125 634 105.000000
E 126 224 98.000000
E 126 391 97.000000
E 127 137 101.000000
E 127 275 96.000000
E 127 295 100.000000
E 127 613 98.000000
E 128 306 97.000000
E 128 463 100.000000
E 128 638 99.000000
E 129 194 102.000000
E 129 388 92.000000
E 130 288 96.000000
E 130 595 97.000000
E 131 149 99.000000
E 131 318 94.000000
E 131 455 101.000000
E 132 335 99.000000
E 132 401 100.000000
E 133 456 98.000000
E 133 610 97.000000
E 134 294 96.000000
E 135 208 104.000000
E 135 377 94.000000
E 135 492 102.000000
E 138 564 101.000000
E 138 625 97.000000
E 139 166 105.000000
E 140 494 101.000000
E 140 594 103.000000
E 141 270 102.000000
E 141 311 100.000000
E 141 487 97.000000
E 141 622 89.000000
E 142 572 94.000000
E 142 597 95.000000
E 143 268 95.000000
E 143 301 101.000000
E 143 462 105.000000
E 144 201 99.000000
E 144 390 104.000000
E 144 528 100.000000
E 144 584 93.000000
E 145 238 91.000000
E 146 153 104.000000
E 146 436 91.000000
E 147 344 92.000000
E 148 192 99.000000
E 148 265 98.000000
E 148 342 100.000000
E 149 374 108.000000
E 149 507 98.000000
E 149 561 102.000000
E 150 248 100.000000
E 150 621 95.000000
E 151 191 94.000000
E 151 197 101.000000
E 151 341 100.000000
E 151 479 102.000000
E 152 248 87.000000
E 152 332 101.000000
E 152 630 102.000000
E 153 198 102.000000
E 153 356 93.000000
E 153 597 105.000000
E 154 200 103.000000
E 155 347 99.000000
E 155 504 106.000000
E 155 509 97.000000
E 155 546 101.000000
E 156 292 98.000000
E 156 373 95.000000
E 156 429 98.000000
E 156 509 103.000000
E 157 296 101.000000
E 157 483 87.000000
E 159 408 110.000000
E 159 475 97.000000
E 160 239 105.000000
E 160 259 101.000000
E 160 371 105.000000
E 160 565 94.000000
E 161 360 91.000000
E 161 491 107.000000
E 162 205 98.000000
E 162 221 99.000000
E 162 236 102.000000
E 162 608 101.000000
E 163 353 98.000000
E 163 369 103.000000
E 164 337 101.000000
E 164 374 93.000000
E 164 467 97.000000
E 164 554 102.000000
E 165 173 103.000000
E 165 265 107.000000
E 165 331 97.000000
E 165 373 103.000000
E 165 638 108.000000
E 166 336 102.000000
E 167 532 93.000000
E 167 539 91.000000
E 167 578 95.000000
E 168 211 97.000000
E 168 447 97.000000
E 169 207 99.000000
E 169 336 98.000000
E 169 416 88.000000
E 170 176 98.000000
E 170 447 95.000000
E 171 240 100.000000
E 172 592 101.000000
E 172 631 97.000000
E 173 176 99.000000
E 173 423 98.000000
E 173 456 102.000000
E 173 485 100.000000
E 174 285 100.000000
E 175 581 94.000000
E 176 414 100.000000
E 176 415 107.000000
E 176 442 99.000000
E 177 239 91.000000
E 177 500 95.000000
E 178 185 105.000000
E 178 364 93.000000
E 178 624 101.000000
E 179 293 94.000000
E 180 262 105.000000
E 180 559 88.000000
E 180 634 102.000000
E 181 187 99.000000
E 181 402 102.000000
E 182 201 89.000000
E 182 265 103.000000
E 182 267 98.000000
E 182 489 96.000000
E 182 551 98.000000
E 182 632 104.000000
E 184 289 87.000000
E 184 413 104.000000
E 185 599 99.000000
E 186 434 106.000000
E 187 402 91.000000
E 187 545 94.000000
E 188 206 93.000000
E 188 505 106.000000
E 189 263 104.000000
E 189 387 98.000000
E 189 461 100.000000
E 189 493 94.000000
E 190 260 89.000000
E 192 297 102.000000
E 192 332 101.000000
E 192 553 101.000000
E 192 554 94.000000
E 192 580 105.000000
E 193 567 110.000000
E 193 568 98.000000
E 194 469 100.000000
E 194 517 95.000000
E 196 498 100.000000
E 198 338 102.000000
E 198 450 105.000000
E 198 526 101.000000
E 199 236 99.000000
E 199 318 98.000000
E 199 388 104.000000
E 199 558 97.000000
E 200 241 102.000000
E 201 360 98.000000
E 201 625 98.000000
E 202 415 96.000000
E 202 602 100.000000
E 203 385 99.000000
E 204 555 91.000000
E 204 630 93.000000
E 205 234 105.000000
E 205 294 87.000000
E 206 514 100.000000
E 206 582 101.000000
E 208 254 96.000000
E 209 386 95.000000
E 209 617 103.000000
E 210 503 103.000000
E 210 583 101.000000
E 211 445 107.000000
E 211 595 97.000000
E 211 638 107.000000
E 212 502 102.000000
E 213 513 99.000000
E 213 583 95.000000
E 213 628 109.000000
E 215 450 105.000000
E 215 576 100.000000
E 216 400 103.000000
E 216 592 104.000000
E 217 310 94.000000
E 217 625 102.000000
E 218 264 103.000000
E 218 385 99.000000
E 219 358 97.000000
E 220 307 106.000000
E 220 347 101.000000
E 220 469 109.000000
E 222 548 92.000000
E 224 278 103.000000
E 224 497 101.000000
E 224 602 101.000000
E 224 630 98.000000
E 225 262 101.000000
E 225 277 99.000000
E 225 389 99.000000
E 226 364 96.000000
E 227 275 107.000000
E 227 493 97.000000
E 228 560 91.000000
E 229 238 99.000000
E 229 417 102.000000
E 229 442 102.000000
E 230 327 90.000000
E 230 369 101.000000
E 230 448 98.000000
E 230 514 97.000000
E 231 321 96.000000
E 231 364 96.000000
E 231 396 99.000000
E 231 578 91.000000
E 232 271 98.000000
E 232 424 97.000000
E 232 540 108.000000
E 233 321 103.000000
E 233 326 93.000000
E 233 512 102.000000
E 233 525 100.000000
E 233 595 102.000000
E 234 614 93.000000
E 235 291 95.000000
E 235 612 109.000000
E 236 341 92.000000
E 236 492 100.000000
E 236 537 92.000000
E 236 593 103.000000
E 237 471 102.000000
E 238 510 97.000000
E 239 373 103.000000
E 239 375 104.000000
E 239 471 98.000000
E 239 542 106.000000
E 240 325 109.000000
E 242 544 107.000000
E 243 569 92.000000
E 243 635 101.000000
E 244 367 99.000000
E 245 337 96.000000
E 246 480 99.000000
E 247 533 101.000000
E 247 569 102.000000
E 247 572 98.000000
E 248 326 109.000000
E 249 449 100.000000
E 250 485 98.000000
E 250 621 96.000000
E 251 434 101.000000
E 251 480 98.000000
E 252 469 98.000000
E 253 615 105.000000
E 255 367 101.000000
E 258 407 99.000000
E 260 321 92.000000
E 260 460 97.000000
E 261 288 98.000000
E 261 295 93.000000
E 261 594 87.000000
E 263 488 111.000000
E 264 533 111.000000
E 264 595 104.000000
E 265 367 101.000000
E 266 482 98.000000
E 266 626 104.000000
E 268 433 95.000000
E 268 436 112.000000
E 269 288 91.000000
E 269 319 87.000000
E 270 271 106.000000
E 272 378 98.000000
E 273 563 98.000000
E 273 634 97.000000
E 274 427 95.000000
E 274 507 100.000000
E 275 513 107.000000
E 276 300 104.000000
E 276 363 108.000000
E 276 624 101.000000
E 277 283 98.000000
E 277 518 108.000000
E 278 577 96.000000
E 278 612 103.000000
E 279 471 109.000000
E 279 603 98.000000
E 280 455 102.000000
E 280 506 100.000000
E 281 282 92.000000
E 281 385 96.000000
E 282 615 94.000000
E 282 636 101.000000
E 284 321 100.000000
E 284 446 100.000000
E 284 565 104.000000
E 285 469 106.000000
E 286 316 99.000000
E 286 440 102.000000
E 286 481 106.000000
E 286 497 100.000000
E 286 590 103.000000
E 287 363 112.000000
E 287 637 103.000000
E 288 370 94.000000
E 289 303 94.000000
E 289 321 102.000000
E 289 465 100.000000
E 289 466 109.000000
E 290 493 97.000000
E 291 307 100.000000
E 291 481 105.000000
E 294 637 94.000000
E 295 638 99.000000
E 296 445 106.000000
E 297 319 90.000000
E 297 449 95.000000
E 297 466 98.000000
E 297 555 96.000000
E 297 590 97.000000
E 298 358 97.000000
E 300 516 95.000000
E 300 591 98.000000
E 301 408 104.000000
E 301 444 104.000000
E 302 361 99.000000
E 303 369 107.000000
E 303 451 95.000000
E 303 490 101.000000
E 304 552 94.000000
E 306 470 95.000000
E 306 556 102.000000
E 306 566 105.000000
E 308 329 95.000000
E 308 358 97.000000
E 308 556 104.000000
E 309 490 98.000000
E 309 524 98.000000
E 309 607 102.000000
E 312 434 101.000000
E 312 639 97.000000
E 313 563 95.000000
E 314 569 103.000000
E 315 618 94.000000
E 317 406 104.000000
E 317 554 94.000000
E 318 631 102.000000
E 320 403 110.000000
E 322 330 103.000000
E 322 488 106.000000
E 322 496 93.000000
E 322 620 99.000000
E 323 423 98.000000
E 323 610 99.000000
E 324 329 95.000000
E 324 337 98.000000
E 324 464 104.000000
E 324 622 100.000000
E 325 533 93.000000
E 325 615 95.000000
E 327 543 100.000000
E 328 574 96.000000
E 329 333 105.000000
E 329 336 103.000000
E 329 357 98.000000
E 329 418 96.000000
E 329 462 95.000000
E 329 490 95.000000
E 329 600 98.000000
E 329 609 103.000000
E 330 360 97.000000
E 331 435 104.000000
E 332 343 111.000000
E 332 441 97.000000
E 332 506 101.000000
E 332 513 86.000000
E 332 587 93.000000
E 334 354 94.000000
E 335 420 101.000000
E 335 637 103.000000
E 336 450 97.000000
E 337 382 109.000000
E 337 414 93.000000
E 337 594 101.000000
E 338 508 94.000000
E 340 348 101.000000
E 342 344 98.000000
E 342 395 103.000000
E 342 513 93.000000
E 343 570 97.000000
E 345 507 100.000000
E 345 511 98.000000
E 346 359 90.000000
E 346 397 95.000000
E 346 477 98.000000
E 346 488 103.000000
E 346 534 106.000000
E 349 458 96.000000
E 350 372 102.000000
E 350 630 96.000000
E 351 619 105.000000
E 352 589 103.000000
E 355 577 97.000000
E 356 446 94.000000
E 356 487 101.000000
E 357 513 98.000000
E 358 526 102.000000
E 359 542 94.000000
E 360 425 98.000000
E 360 494 101.000000
E 360 549 106.000000
E 362 488 108.000000
E 363 517 98.000000
E 363 539 95.000000
E 364 401 101.000000
E 365 376 101.000000
E 365 523 95.000000
E 366 439 100.000000
E 367 488 99.000000
E 367 570 95.000000
E 368 371 99.000000
E 371 558 102.000000
E 372 571 108.000000
E 372 595 96.000000
E 373 494 99.000000
E 376 390 95.000000
E 377 467 100.000000
E 377 490 95.000000
E 377 569 103.000000
E 378 466 99.000000
E 378 621 98.000000
E 379 384 95.000000
E 379 524 97.000000
E 380 502 114.000000
E 381 415 92.000000
E 383 640 105.000000
E 384 429 98.000000
E 384 634 107.000000
E 385 410 101.000000
E 385 481 96.000000
E 386 463 93.000000
E 387 439 101.000000
E 387 487 100.000000
E 389 535 95.000000
E 389 539 106.000000
E 390 410 106.000000
E 390 442 98.000000
E 390 468 100.000000
E 391 403 101.000000
E 391 601 99.000000
E 393 395 104.000000
E 393 425 94.000000
E 393 434 97.000000
E 394 451 100.000000
E 395 401 97.000000
E 396 557 90.000000
E 398 400 102.000000
E 399 543 98.000000
E 399 603 97.000000
E 400 405 93.000000
E 400 623 98.000000
E 401 432 99.000000
E 401 617 103.000000
E 402 420 102.000000
E 402 424 100.000000
E 402 486 97.000000
E 402 562 98.000000
E 404 514 104.000000
E 405 418 92.000000
E 405 491 94.000000
E 405 598 87.000000
E 405 605 98.000000
E 406 461 97.000000
E 409 522 98.000000
E 409 525 92.000000
E 411 531 95.000000
E 412 573 101.000000
E 412 610 94.000000
E 413 507 105.000000
E 413 622 102.000000
E 414 447 103.000000
E 420 425 95.000000
E 420 575 101.000000
E 421 443 101.000000
E 421 552 92.000000
E 422 532 98.000000
E 423 611 106.000000
E 426 493 91.000000
E 429 549 97.000000
E 430 595 104.000000
E 431 485 98.000000
E 431 536 101.000000
E 432 480 100.000000
E 435 609 110.000000
E 436 513 104.000000
E 436 599 93.000000
E 437 548 97.000000
E 438 469 97.000000
E 439 630 103.000000
E 442 484 103.000000
E 443 450 97.000000
E 443 541 100.000000
E 443 570 105.000000
E 444 615 97.000000
E 446 488 97.000000
E 448 459 103.000000
E 449 521 103.000000
E 452 502 92.000000
E 453 519 100.000000
E 454 600 95.000000
E 456 484 100.000000
E 456 618 94.000000
E 458 482 100.000000
E 459 477 97.000000
E 461 635 103.000000
E 462 539 97.000000
E 462 617 98.000000
E 465 473 100.000000
E 465 633 94.000000
E 467 482 94.000000
E 467 604 97.000000
E 470 572 102.000000
E 470 585 100.000000
E 473 577 87.000000
E 476 603 109.000000
E 477 600 96.000000
E 478 552 93.000000
E 479 529 100.000000
E 479 584 101.000000
E 479 603 98.000000
E 481 520 100.000000
E 484 536 99.000000
E 485 620 105.000000
E 489 529 108.000000
E 489 625 96.000000
E 490 534 100.000000
E 493 506 102.000000
E 493 630 102.000000
E 496 526 101.000000
E 498 527 100.000000
E 499 539 101.000000
E 504 585 94.000000
E 505 615 101.000000
E 506 574 97.000000
E 508 638 99.000000
E 509 623 99.000000
E 510 578 96.000000
E 512 551 102.000000
E 513 621 110.000000
E 514 579 96.000000
E 515 526 100.000000
E 516 533 93.000000
E 520 584 101.000000
E 520 610 101.000000
E 527 539 103.000000
E 530 570 100.000000
E 535 608 94.000000
E 537 588 101.000000
E 537 638 95.000000
E 538 560 99.000000
E 541 619 100.000000
E 544 594 100.000000
E 550 583 95.000000
E 551 603 95.000000
E 554 556 97.000000
E 554 619 85.000000
E 560 574 100.000000
E 561 639 98.000000
E 562 640 105.000000
E 563 579 90.000000
E 569 585 99.000000
E 571 606 99.000000
E 579 627 95.000000
E 581 598 105.000000
E 590 596 100.000000
E 595 621 102.000000
E 596 616 100.000000
E 600 629 98.000000
E 606 639 96.000000
E 609 624 99.000000
E 621 635 103.000000
END

SECTION Terminals
Terminals 9
TP 1 280.000000
TP 2 344.000000
TP 3 1000.000000
TP 4 180.000000
TP 5 692.000000
TP 6 228.000000
TP 7 956.000000
TP 8 204.000000
TP 9 572.000000
END

EOF
